NAME : problems/30-tsp/instance-34.tsp
COMMENT : No Comment
TYPE : TSP
DIMENSION: 30
EDGE_WEIGHT_TYPE : EUC_2D
NODE_COORD_SECTION
1 3781 3785 
2 4138 8136 
3 8235 8544 
4 4453 8985 
5 4497 8208 
6 5044 4292 
7 5127 2 
8 1198 7900 
9 1814 5964 
10 7024 9564 
11 7035 7821 
12 8571 4400 
13 196 9475 
14 2177 769 
15 5832 3791 
16 8323 7717 
17 2668 8404 
18 9406 3279 
19 554 6897 
20 615 5793 
21 1007 6051 
22 554 4364 
23 6991 7816 
24 140 3990 
25 355 8440 
26 681 1007 
27 1826 747 
28 1985 6789 
29 8951 1773 
30 9257 7257 
EOF
